RT is False
Default write of storage_offers_DA.csv just to have a file (but constraint should be inactive)
Reading model...
...model read.
creating competitive generators file...
...competitive generators recorded.
Loading data...
.. day-ahead data read.
Compiling instance...
...instance created.
Creating Offer Mitigation (model will solve as dispatch if TRUE)...
NOTE: storage offers will not be mitigated
...storage offer mitigation file created
Converting model to MPEC...
...converted
NOTE: initial MIP solve with only storage competitive to get feasible solution
Solving...

Welcome to IBM(R) ILOG(R) CPLEX(R) Interactive Optimizer 12.9.0.0
  with Simplex, Mixed Integer & Barrier Optimizers
5725-A06 5725-A29 5724-Y48 5724-Y49 5724-Y54 5724-Y55 5655-Y21
Copyright IBM Corp. 1988, 2019.  All Rights Reserved.

Type 'help' for a list of available commands.
Type 'help' followed by a command name for more
information on commands.

CPLEX> Logfile 'cplex.log' closed.
Logfile 'C:\Users\Luke\Desktop\test919\logs\tmpnbykr30g.cplex.log' open.
CPLEX> New value for parallel optimization mode: -1
CPLEX> New value for mixed integer optimality gap tolerance: 0.01
CPLEX> New value for integrality tolerance: 1e-09
CPLEX> New value for feasibility tolerance: 0.01
CPLEX> New value for deterministic time limit in ticks: 75000
CPLEX> Problem 'C:\Users\Luke\Desktop\test919\logs\tmpp12q1e5s.pyomo.lp' read.
Read time = 0.20 sec. (14.73 ticks)
CPLEX> Problem name         : C:\Users\Luke\Desktop\test919\logs\tmpp12q1e5s.pyomo.lp
Objective sense      : Maximize
Variables            :   53805  [Nneg: 1,  Box: 22000,  Free: 4464,
                                 Binary: 27340]
Objective nonzeros   :    9040
Linear constraints   :  123205  [Less: 41346,  Greater: 59096,  Equal: 22763]
  Nonzeros           :  291764
  RHS nonzeros       :   67502

Variables            : Min LB: -5000.000        Max UB: 1000000.       
Objective nonzeros   : Min   : 0.1000000        Max   : 2500.000       
Linear constraints   :
  Nonzeros           : Min   : 0.1000000        Max   : 1000000.       
  RHS nonzeros       : Min   : 0.1000000        Max   : 1000000.       
CPLEX> CPXPARAM_Parallel                                -1
CPXPARAM_Simplex_Tolerances_Feasibility          0.01
CPXPARAM_DetTimeLimit                            75000
CPXPARAM_MIP_Tolerances_MIPGap                   0.01
CPXPARAM_MIP_Tolerances_Integrality              1.0000000000000001e-09
Tried aggregator 3 times.
MIP Presolve eliminated 88634 rows and 18968 columns.
MIP Presolve added 3383 rows and 0 columns.
MIP Presolve modified 24866 coefficients.
Aggregator did 12973 substitutions.
Reduced MIP has 24981 rows, 21318 columns, and 71240 nonzeros.
Reduced MIP has 8428 binaries, 0 generals, 0 SOSs, and 0 indicators.
Presolve time = 0.25 sec. (176.25 ticks)
Probing fixed 391 vars, tightened 2848 bounds.
Probing time = 1.42 sec. (871.62 ticks)
Tried aggregator 2 times.
MIP Presolve eliminated 879 rows and 783 columns.
MIP Presolve modified 2224 coefficients.
Aggregator did 40 substitutions.
Reduced MIP has 24062 rows, 20495 columns, and 68574 nonzeros.
Reduced MIP has 8037 binaries, 0 generals, 0 SOSs, and 0 indicators.
Presolve time = 0.11 sec. (71.63 ticks)
Probing time = 0.03 sec. (16.23 ticks)
Clique table members: 6292.
MIP emphasis: balance optimality and feasibility.
MIP search method: dynamic search.
Parallel mode: opportunistic, using up to 24 threads.
Root relaxation solution time = 0.42 sec. (314.96 ticks)

        Nodes                                         Cuts/
   Node  Left     Objective  IInf  Best Integer    Best Bound    ItCnt     Gap

      0     0       97.6573  2051                     97.6573     7292         
      0     0       97.6573   634                   Cuts: 657     7590         
      0     0       97.6573   534                   Cuts: 439     7792         
      0     0       97.6573   445                   Cuts: 315     7896         
      0     0       94.5138   423                    Cuts: 76     7921         
      0     0       94.5138   411                    Cuts: 67     7935         
      0     0       94.5138   409                    Cuts: 31     7937         
      0     0       94.5138   408                    Cuts: 31     7942         
      0     6    infeasible                           36.8737     8192         
Elapsed time = 9.28 sec. (6033.62 ticks, tree = 0.02 MB, solutions = 0)
    439    64       36.8737   389                     36.8737     8353         
    674   460      -11.5552   377                     36.8737     9334         
   1029   752    infeasible                           36.8737    12519         
   1665   919     -647.4639   354                     36.8737    14735         
   2771  1551     -695.8927   320                     36.8737    17426         
   3549  2447     -647.4639   350                     36.8737    18072         
   4107  2610     -647.4639   312                     36.8737    18117         
   4975  3563     -647.4639   315                     36.8737    18837         
   6087  4332     -647.4639   279                     36.8737    20585         
   9096  7970     -957.3513   116                     36.8737    23161         
Elapsed time = 18.14 sec. (9136.12 ticks, tree = 72.97 MB, solutions = 0)
* 10090+ 8669                        -2145.6806       36.8737           101.72%
  11185  6016       36.8737    19     -716.1343       36.8737    54378  105.15%
  11849  6501      -10.0121    66     -716.1343       36.8737    61831  105.15%
  12296  6287     -282.6707    15     -716.1343       36.8737    60728  105.15%
  12737  6201      -10.0121    23     -716.1343       36.8737    58833  105.15%
  12895  6722      -62.2606    10     -716.1343       36.8737    65302  105.15%
  12936  6724        cutoff           -716.1343       36.8737    65636  105.15%
  12940  7651        cutoff           -716.1343       36.8737    84513  105.15%
  14036   434      -40.1724    56     -716.1343       17.2927    88336  102.41%
  16128   584      -45.6570    31     -716.1343        7.1453    89816  101.00%
Elapsed time = 38.38 sec. (22230.75 ticks, tree = 4.16 MB, solutions = 2)
  17523  2320        cutoff           -716.1343        7.1453   101796  101.00%
  19358  2277        cutoff           -116.4444        7.1453   104520  106.14%
  20420   878        5.4158    23     -116.4444        5.4159   123976  104.65%
  21014   958        cutoff           -116.4444        5.4159   186230  104.65%
  22727  1119      -94.9838    26     -116.4444        5.4159   187801  104.65%
  24605  1911      -66.8014    35     -116.4444       -0.4169   274626   99.64%
  26674  1913      -70.3854   222     -116.4444      -34.3001   278486   70.54%
  28870  3358      -95.9181    41     -116.4444      -41.5829   357362   64.29%
  30719  3506      -82.0141    39     -116.4444      -42.1815   383008   63.78%
  31448  4040      -43.0848    33     -116.4444      -49.5609   470594   57.44%
Elapsed time = 64.94 sec. (31779.28 ticks, tree = 37.29 MB, solutions = 3)
  32331  4015      -72.9970   198     -116.4444      -64.1513   495343   44.91%
  34275  3905        cutoff           -116.4444      -72.7106   537075   37.56%
  36567  3839     -108.0081    51     -116.4444      -83.6269   588783   28.18%
  38915  3793      -84.3093    51     -116.4444      -93.8168   605530   19.43%
  40868  3166    infeasible           -116.4444      -96.5927   726032   17.05%
  42341  3165     -104.3010    41     -116.4444      -98.7487   739811   15.20%
  42884  2973     -102.4126    47     -116.4444      -99.1164   758967   14.88%
  44464  2670     -116.1294    33     -116.4444     -105.7509   771816    9.18%
  46083   820        cutoff           -116.4444     -112.0247   898457    3.80%
  47708  1194        cutoff           -116.4444     -114.2330   866239    1.90%
Elapsed time = 94.39 sec. (41323.38 ticks, tree = 12.34 MB, solutions = 3)
  48077  1234        cutoff           -116.4444     -114.2330   865550    1.90%

GUB cover cuts applied:  2
Clique cuts applied:  7
Cover cuts applied:  13
Implied bound cuts applied:  581
Flow cuts applied:  286
Mixed integer rounding cuts applied:  54
Zero-half cuts applied:  1
Gomory fractional cuts applied:  98

Root node processing (before b&c):
  Real time             =    8.97 sec. (6027.37 ticks)
Parallel b&c, 24 threads:
  Real time             =   85.67 sec. (36751.59 ticks)
  Sync time (average)   =    1.43 sec.
  Wait time (average)   =    0.07 sec.
                          ------------
Total (root+branch&cut) =   94.64 sec. (42778.96 ticks)

Solution pool: 3 solutions saved.

MIP - Integer optimal, tolerance (0.01/1e-06):  Objective = -1.1644437416e+02
Current MIP best bound = -1.1532648256e+02 (gap = 1.11789, 0.96%)
Solution time =   94.66 sec.  Iterations = 908669  Nodes = 48130 (366)
Deterministic time = 42779.11 ticks  (451.94 ticks/sec)

CPLEX> Incumbent solution written to file 'C:\Users\Luke\Desktop\test919\logs\tmp4gqcug8t.cplex.sol'.
CPLEX> NOTE: no warmstart specified for MIP iteration, default behavior is true
NOTE: resolving with all competitive generators using storage-only solution to warmstart
Solving...

Welcome to IBM(R) ILOG(R) CPLEX(R) Interactive Optimizer 12.9.0.0
  with Simplex, Mixed Integer & Barrier Optimizers
5725-A06 5725-A29 5724-Y48 5724-Y49 5724-Y54 5724-Y55 5655-Y21
Copyright IBM Corp. 1988, 2019.  All Rights Reserved.

Type 'help' for a list of available commands.
Type 'help' followed by a command name for more
information on commands.

CPLEX> Logfile 'cplex.log' closed.
Logfile 'C:\Users\Luke\Desktop\test919\logs\tmplfw41xw0.cplex.log' open.
CPLEX> New value for parallel optimization mode: -1
CPLEX> New value for mixed integer optimality gap tolerance: 0.01
CPLEX> New value for integrality tolerance: 1e-09
CPLEX> New value for feasibility tolerance: 0.01
CPLEX> New value for deterministic time limit in ticks: 75000
CPLEX> Problem 'C:\Users\Luke\Desktop\test919\logs\tmpn9umpmdz.pyomo.lp' read.
Read time = 0.20 sec. (14.75 ticks)
CPLEX> MIP start file 'C:\Users\Luke\Desktop\test919\logs\tmpw6zcoky8.cplex.mst' read.
CPLEX> Problem name         : C:\Users\Luke\Desktop\test919\logs\tmpn9umpmdz.pyomo.lp
Objective sense      : Maximize
Variables            :   54525  [Nneg: 1,  Box: 22720,  Free: 4464,
                                 Binary: 27340]
Objective nonzeros   :    9760
Linear constraints   :  123205  [Less: 41346,  Greater: 59096,  Equal: 22763]
  Nonzeros           :  291764
  RHS nonzeros       :   67502

Variables            : Min LB: -5000.000        Max UB: 1000000.       
Objective nonzeros   : Min   : 0.1000000        Max   : 2500.000       
Linear constraints   :
  Nonzeros           : Min   : 0.1000000        Max   : 1000000.       
  RHS nonzeros       : Min   : 0.1000000        Max   : 1000000.       
CPLEX> CPXPARAM_Parallel                                -1
CPXPARAM_Simplex_Tolerances_Feasibility          0.01
CPXPARAM_DetTimeLimit                            75000
CPXPARAM_MIP_Tolerances_MIPGap                   0.01
CPXPARAM_MIP_Tolerances_Integrality              1.0000000000000001e-09
Warning:  No solution found from 1 MIP starts.
Retaining values of one MIP start for possible repair.
Tried aggregator 3 times.
MIP Presolve eliminated 88634 rows and 19688 columns.
MIP Presolve added 3383 rows and 0 columns.
MIP Presolve modified 24866 coefficients.
Aggregator did 12973 substitutions.
Reduced MIP has 24981 rows, 21318 columns, and 71240 nonzeros.
Reduced MIP has 8428 binaries, 0 generals, 0 SOSs, and 0 indicators.
Presolve time = 0.23 sec. (176.62 ticks)
Probing fixed 391 vars, tightened 2848 bounds.
Probing time = 1.42 sec. (871.62 ticks)
Tried aggregator 2 times.
MIP Presolve eliminated 879 rows and 783 columns.
MIP Presolve modified 2224 coefficients.
Aggregator did 40 substitutions.
Reduced MIP has 24062 rows, 20495 columns, and 68574 nonzeros.
Reduced MIP has 8037 binaries, 0 generals, 0 SOSs, and 0 indicators.
Presolve time = 0.11 sec. (71.63 ticks)
Probing time = 0.03 sec. (16.23 ticks)
Clique table members: 6292.
MIP emphasis: balance optimality and feasibility.
MIP search method: dynamic search.
Parallel mode: opportunistic, using up to 24 threads.
Root relaxation solution time = 0.44 sec. (314.96 ticks)

        Nodes                                         Cuts/
   Node  Left     Objective  IInf  Best Integer    Best Bound    ItCnt     Gap

      0     0       97.6573  2051                     97.6573     7292         
      0     0       97.6573   634                   Cuts: 657     7590         
      0     0       97.6573   534                   Cuts: 439     7792         
      0     0       97.6573   445                   Cuts: 315     7896         
      0     0       94.5138   422                    Cuts: 76     7922         
      0     0       94.5138   410                    Cuts: 71     7938         
      0     0       94.5138   409                    Cuts: 31     7939         
      0     0       94.5138   408                    Cuts: 31     7944         
Repair heuristic found nothing.
      0     7    infeasible                           36.8737     8024         
Elapsed time = 9.55 sec. (6106.07 ticks, tree = 0.02 MB, solutions = 0)
    509   213     -313.3727   387                     36.8737     8613         
    839   696     -737.1297   361                     36.8737    13679         
   1307   769       36.8737   325                     36.8737    14992         
   1935  1160     -647.4639   335                     36.8737    19686         
   2878  2440     -264.9438   330                     36.8737    20931         
   3476  2696     -647.4639   314                     36.8737    20978         
   4153  3247     -647.4639   318                     36.8737    21362         
   5107  3702     -264.9438   322                     36.8737    21923         
   5990  4694     -647.4639   284                     36.8737    22176         
   9042  8468     -749.1976   238                     36.8737    25472         
Elapsed time = 18.61 sec. (9208.40 ticks, tree = 79.57 MB, solutions = 0)
   9771  9104      -11.5552   247                     36.8737    37097         
*  9907+ 4497                         -647.4639       36.8737           105.70%
  10832  4661       36.8737   209     -647.4639       36.8737    56660  105.70%
  11493  5338        cutoff           -647.4639       36.8737    66630  105.70%
  12075  5627       36.8737    68     -647.4639       36.8737    69579  105.70%
  12452  5394        cutoff           -647.4639       36.8737    67777  105.70%
  12691  5460        cutoff           -647.4639       36.8737    69028  105.70%
  12867  5684      -74.3868     7     -647.4639       36.8737    71193  105.70%
  12875  5683        cutoff           -647.4639       36.8737    71193  105.70%
  12877  6660    infeasible            -53.2321       26.4234    83322  149.64%
Elapsed time = 34.98 sec. (21109.36 ticks, tree = 78.53 MB, solutions = 2)
  13305    19      -25.4950     6      -53.2321      -25.4950    84103   52.11%

GUB cover cuts applied:  1
Clique cuts applied:  8
Cover cuts applied:  3
Implied bound cuts applied:  37
Flow cuts applied:  108
Mixed integer rounding cuts applied:  37
Zero-half cuts applied:  1
Gomory fractional cuts applied:  50

Root node processing (before b&c):
  Real time             =    9.27 sec. (6100.35 ticks)
Parallel b&c, 24 threads:
  Real time             =   27.41 sec. (16124.68 ticks)
  Sync time (average)   =    1.90 sec.
  Wait time (average)   =    0.08 sec.
                          ------------
Total (root+branch&cut) =   36.67 sec. (22225.03 ticks)

Solution pool: 2 solutions saved.

MIP - Integer optimal solution:  Objective = -5.3232123212e+01
Solution time =   36.67 sec.  Iterations = 87877  Nodes = 13313
Deterministic time = 22225.18 ticks  (606.05 ticks/sec)

CPLEX> Incumbent solution written to file 'C:\Users\Luke\Desktop\test919\logs\tmpkbwa0s9l.cplex.sol'.
CPLEX> Exporting results... 
